50
17906

456 326
847 219
895 386
851 516
393 874
81 773
604 829
876 128
489 87
546 441
500 944
537 792
127 284
347 77
639 664
376 713
904 578
714 954
558 229
966 720
943 360
94 392
495 281
192 282
4 462
909 634
689 680
623 718
109 57
829 158
314 257
489 774
138 355
98 120
382 847
315 591
543 909
534 50
226 534
397 243
429 248
458 135
230 225
29 205
535 892
912 340
504 624
530 896
613 800
353 955
